2006365
93,24,56,8,65,44,80,75,54,71,49,12,92,61,30,62,35,96,82,85,86,98,67,29,95,20,19,59,73,79,0,36,47,37,31,32,69,46,94,39,25,89,70,97,4,84,1,2,52,48,5,9,55,17,68,74,40,76,43,7,90,88,26,63,41,81,66,72,13,83,3,21,6,38,91,57,14,15,60,34,87,18,16,53,51,64,33,22,10,45,27,42,23,58,11,28,78,77,50
